NAME: test1980
TYPE: TSP
DIMENSION: 11
EDGE_WEIGHT_TYPE: EUC_2D
NODE_COORD_SECTION
1 45.58599118683745 25.440180684423265
2 61.90115543618905 46.20799505088523
3 2.236760333174048 94.06832287138941
4 51.682825294687554 14.043171976290726
5 38.229790156631694 42.150686076020484
6 85.75366516636717 77.21200579792175
7 2.93973179119158 15.009440900607174
8 73.42542562507131 82.04875258611109
9 15.877124752177963 48.71030102742417
10 59.53362083646785 44.7233231659268
11 74.59349449281008 70.9502189779884
EOF
